HUN,8,6,574
2,1,1,4,0,23,3,1,5,1,4,29
1,26,0,17,2,25,3,26,4,13,5,20
0,11,2,7,1,14,5,12,4,11,3,11
1,30,2,17,0,13,5,6,4,8,3,12
0,18,1,20,2,26,4,11,5,8,3,16
0,6,2,20,1,2,3,2,4,19,5,21
1,27,2,23,0,25,3,21,5,20,4,6
0,22,1,8,2,1,5,18,3,15,4,16
